p td 80 79
0 1
0 10
0 52
1 2
1 3
1 4
1 6
1 7
1 9
1 11
1 12
1 14
1 19
1 21
1 25
1 28
1 30
1 31
1 32
1 35
1 36
1 47
1 53
1 59
1 71
1 79
2 5
2 17
2 22
2 65
3 27
3 37
3 43
3 73
4 24
4 34
4 66
6 15
6 20
6 45
6 50
6 56
7 8
10 18
10 51
12 13
13 16
13 26
13 38
13 39
13 41
13 61
13 63
13 68
14 58
14 76
18 23
18 57
18 60
21 46
22 44
23 29
24 67
26 42
26 54
27 40
29 64
29 77
31 33
31 49
38 48
39 70
40 62
42 78
53 55
54 69
64 74
70 72
70 75
